StringID		Type		X		Y		Demand		ServiceBy
D0		d		22.5		29.2		0.0		-
C1		c		25.0		9.8		1.71		D/T
C2		c		26.4		-35.5		2.88		D/T
C3		c		12.1		-21.3		1.56		D/T
C4		c		-15.7		-7.5		4.83		D/T
C5		c		12.6		-32.4		1.72		D/T
C6		c		24.8		39.4		4.52		D/T
C7		c		-8.1		22.0		1.86		D/T
C8		c		-7.6		14.3		1.22		D/T
C9		c		4.1		35.4		4.78		D/T
C10		c		34.4		36.1		3.11		D/T
C11		c		9.3		-25.0		1.38		D/T
C12		c		-20.6		-20.3		3.0		D/T